; --------------------------------------------------------------------------
; File     : ODRL329-1.smt2
; Domain   : ODRL Spatial Axis Profile
; Problem  : Narrow width strip × wide height → Compatible
; Expected : sat
; Verdict  : Compatible
; Category : Box2D
;
; ODRL Policy (Turtle):
;   @prefix odrl: <http://www.w3.org/ns/odrl/2/> .
;   @prefix oax:  <http://w3id.org/odrl/spatial-axis#> .
;   @prefix ex:   <https://example.org/> .
;
;   ex:policyA a odrl:Set ;
;     odrl:permission [
;       odrl:action odrl:use ;
;       odrl:constraint [
;         odrl:leftOperand oax:absoluteSizeWidth ;
;         odrl:operator odrl:gteq ;
;         odrl:rightOperand "500"^^xsd:decimal ;
;         odrl:unit <http://dbpedia.org/resource/Pixel> ] ;
;       odrl:constraint [
;         odrl:leftOperand oax:absoluteSizeHeight ;
;         odrl:operator odrl:gteq ;
;         odrl:rightOperand "100"^^xsd:decimal ;
;         odrl:unit <http://dbpedia.org/resource/Pixel> ] ] .
;
;   ex:policyB a odrl:Set ;
;     odrl:permission [
;       odrl:action odrl:use ;
;       odrl:constraint [
;         odrl:leftOperand oax:absoluteSizeWidth ;
;         odrl:operator odrl:lteq ;
;         odrl:rightOperand "510"^^xsd:decimal ;
;         odrl:unit <http://dbpedia.org/resource/Pixel> ] ;
;       odrl:constraint [
;         odrl:leftOperand oax:absoluteSizeHeight ;
;         odrl:operator odrl:lteq ;
;         odrl:rightOperand "900"^^xsd:decimal ;
;         odrl:unit <http://dbpedia.org/resource/Pixel> ] ] .
;
; Gen      : gen_axis_suite.py
; --------------------------------------------------------------------------
(set-logic QF_LRA)
(declare-const x Real)
(declare-const y Real)

; --- Axis 1: width ---
(assert (> x 0))
; width: gteq 500  ∧  lteq 510
(assert (>= x 500))
(assert (<= x 510))

; --- Axis 2: height ---
(assert (> y 0))
; height: gteq 100  ∧  lteq 900
(assert (>= y 100))
(assert (<= y 900))

; Result: sat → Compatible
(check-sat)
(exit)
